
Gurobi 12.0.2 (win64) logging started Fri Oct 24 16:56:01 2025

Set parameter LogFile to value "C:\Ioana\_uni\honours\slp\algorithm\Main_files\results\fixing paracetamol degradation (updated model)\Task_004_Sample004_irr_gurobi.log"
Gurobi Optimizer version 12.0.2 build v12.0.2rc0 (win64 - Windows 11.0 (26100.2))

CPU model: Intel(R) Core(TM) Ultra 5 125H, instruction set [SSE2|AVX|AVX2]
Thread count: 14 physical cores, 18 logical processors, using up to 18 threads

Non-default parameters:
TimeLimit  2200

Optimize a model with 47228 rows, 34502 columns and 146698 nonzeros
Model fingerprint: 0x2c167197
Variable types: 17256 continuous, 17246 integer (17246 binary)
Coefficient statistics:
  Matrix range     [1e-04, 8e+04]
  Objective range  [1e-04, 9e-01]
  Bounds range     [1e+00, 1e+03]
  RHS range        [1e+00, 1e+00]
Presolve removed 30826 rows and 21549 columns
Presolve time: 0.58s
Presolved: 16402 rows, 12953 columns, 54582 nonzeros
Variable types: 6410 continuous, 6543 integer (6543 binary)
Found heuristic solution: objective 9.0998007

Root relaxation: objective 8.951913e-01, 3565 iterations, 0.59 seconds (0.75 work units)

    Nodes    |    Current Node    |     Objective Bounds      |     Work
 Expl Unexpl |  Obj  Depth IntInf | Incumbent    BestBd   Gap | It/Node Time

     0     0    0.89519    0    2    9.09980    0.89519  90.2%     -    1s
H    0     0                       1.7747208    0.89519  49.6%     -    1s
H    0     0                       0.9264796    0.89519  3.38%     -    1s
     0     0    0.89519    0    2    0.92648    0.89519  3.38%     -    1s

Explored 1 nodes (3565 simplex iterations) in 1.38 seconds (1.23 work units)
Thread count was 18 (of 18 available processors)

Solution count 3: 0.92648 1.77472 9.0998 

Optimal solution found (tolerance 1.00e-04)
Best objective 9.264796247701e-01, best bound 9.264796247701e-01, gap 0.0000%
